g3 1 1 0	# problem unknown
 2 0 14 0 0 	# vars, constraints, objectives, ranges, eqns
 0 13 0 0 0 0	# nonlinear constrs, objs; ccons: lin, nonlin, nd, nzlb
 0 0	# network constraints: nonlinear, linear
 0 2 0 	# nonlinear vars in constraints, objectives, both
 0 0 0 1	# linear network variables; functions; arith, flags
 0 0 0 0 0 	# discrete variables: binary, integer, nonlinear (b,c,o)
 0 20 	# nonzeros in Jacobian, obj. gradient
 0 0	# max name lengths: constraints, variables
 0 0 0 0 0	# common exprs: b,c,o,c1,o1
O0 0
o0
o54
6
o43
v0
o2
n3
o43
v1
o2
n3.043
o43
o0
o16
o44
o2
n-0.0028724161237124552
v1
n1
o2
n5.874
o43
o0
o16
o44
o2
n-0.009041166292681608
v1
n1
o2
n9.337
o43
o0
o16
o44
o2
n-0.014500951634269647
v1
n1
o2
n7.922
o43
o0
o16
o44
o2
n-0.03180123009543378
v1
n1
n-4.970583
O1 0
o3
n1
v0
O2 0
o16
o3
n1
o5
v0
n2
O3 0
o0
o54
5
o3
n3
v1
o2
n-0.03180123009543378
o2
o16
o3
n7.922
o0
o16
o44
o2
n-0.03180123009543378
v1
n1
o44
o2
n-0.03180123009543378
v1
o2
n-0.014500951634269647
o2
o16
o3
n9.337
o0
o16
o44
o2
n-0.014500951634269647
v1
n1
o44
o2
n-0.014500951634269647
v1
o2
n-0.009041166292681608
o2
o16
o3
n5.874
o0
o16
o44
o2
n-0.009041166292681608
v1
n1
o44
o2
n-0.009041166292681608
v1
o2
n-0.0028724161237124552
o2
o16
o3
n3.043
o0
o16
o44
o2
n-0.0028724161237124552
v1
n1
o44
o2
n-0.0028724161237124552
v1
n4.29352
O4 0
o54
5
o2
n-0.0028724161237124552
o0
o2
o2
n0.0028724161237124552
o3
n3.043
o0
o16
o44
o2
n-0.0028724161237124552
v1
n1
o44
o2
n-0.0028724161237124552
v1
o2
o3
o2
n0.008740762264457002
o44
o2
n-0.0028724161237124552
v1
o5
o0
o16
o44
o2
n-0.0028724161237124552
v1
n1
n2
o44
o2
n-0.0028724161237124552
v1
o2
n-0.009041166292681608
o0
o2
o2
n0.009041166292681608
o3
n5.874
o0
o16
o44
o2
n-0.009041166292681608
v1
n1
o44
o2
n-0.009041166292681608
v1
o2
o3
o2
n0.05310781080321176
o44
o2
n-0.009041166292681608
v1
o5
o0
o16
o44
o2
n-0.009041166292681608
v1
n1
n2
o44
o2
n-0.009041166292681608
v1
o2
n-0.014500951634269647
o0
o2
o2
n0.014500951634269647
o3
n9.337
o0
o16
o44
o2
n-0.014500951634269647
v1
n1
o44
o2
n-0.014500951634269647
v1
o2
o3
o2
n0.1353953854091757
o44
o2
n-0.014500951634269647
v1
o5
o0
o16
o44
o2
n-0.014500951634269647
v1
n1
n2
o44
o2
n-0.014500951634269647
v1
o2
n-0.03180123009543378
o0
o2
o2
n0.03180123009543378
o3
n7.922
o0
o16
o44
o2
n-0.03180123009543378
v1
n1
o44
o2
n-0.03180123009543378
v1
o2
o3
o2
n0.2519293448160264
o44
o2
n-0.03180123009543378
v1
o5
o0
o16
o44
o2
n-0.03180123009543378
v1
n1
n2
o44
o2
n-0.03180123009543378
v1
o16
o3
n3
o5
v1
n2
O5 0
o54
18
o2
o2
n0.042910051
o5
v0
n4
v1
o2
o2
n1.7313671
v0
o5
v1
n0.33
o2
o2
n-2.4516524
v0
o5
v1
n0.8
o2
o2
n0.34157466
o5
v0
n2
o5
v1
n0.43
o2
o2
n-0.46047898
o5
v0
n2
o5
v1
n0.9
o2
o2
o2
n-0.66847295
v0
o5
v1
n2.46
o44
o2
n-1
v0
o2
o2
o2
n0.20889705
o5
v0
n3
o5
v1
n2.09
o44
o2
n-1
v0
o2
o2
o2
n0.19421381
o5
v0
n6
o5
v1
n0.88
o44
o2
n-1
v0
o2
o2
o2
n-0.22917851
o5
v0
n6
o5
v1
n1.09
o44
o2
n-1
v0
o2
o2
o2
n-0.60405866
o5
v0
n2
o5
v1
n3.25
o44
o16
o5
v0
n2
o2
o2
o2
n0.066680654
o5
v0
n3
o5
v1
n4.62
o44
o16
o5
v0
n2
o2
o2
o2
n0.017534618
v0
o5
v1
n0.76
o44
o0
o2
n-0.963
o5
o0
v0
n-1.283
n2
o2
n-2.33
o5
o0
v1
n-0.684
n2
o2
o2
o2
n0.33874242
v0
o5
v1
n2.5
o44
o0
o2
n-1.977
o5
o0
v0
n-0.6936
n2
o2
n-3.47
o5
o0
v1
n-0.829
n2
o2
o2
o2
n0.22228777
v0
o5
v1
n2.75
o44
o0
o2
n-1.917
o5
o0
v0
n-0.788
n2
o2
n-3.15
o5
o0
v1
n-1.419
n2
o2
o2
o2
n-0.23219062
o5
v0
n2
o5
v1
n3.05
o44
o0
o2
n-2.307
o5
o0
v0
n-0.473
n2
o2
n-3.19
o5
o0
v1
n-0.817
n2
o2
o2
o2
n-0.09220694
o5
v0
n2
o5
v1
n2.55
o44
o0
o2
n-2.546
o5
o0
v0
n-0.8577
n2
o2
n-0.92
o5
o0
v1
n-1.5
n2
o2
o2
o2
n-0.47575718
o5
v0
n4
o5
v1
n8.4
o44
o0
o2
n-3.28
o5
o0
v0
n-0.271
n2
o2
n-18.8
o5
o0
v1
n-1.426
n2
o2
o2
o2
n-0.017486824
v0
o5
v1
n6.75
o44
o0
o2
n-14.6
o5
o0
v0
n-0.948
n2
o2
n-547.8
o5
o0
v1
n-1.093
n2
O6 0
o54
31
o2
o2
n-0.92095796
o5
v1
n0.9
v0
o2
o2
n0.68314932
o5
v1
n0.43
v0
o2
n-2.4516524
o5
v1
n0.8
o2
n1.7313671
o5
v1
n0.33
o2
o2
n0.171640204
v1
o5
v0
n3
o2
o2
n-2
o2
o2
o2
n0.066680654
o5
v0
n3
o5
v1
n4.62
o44
o16
o5
v0
n2
v0
o2
o2
n0.20004196200000002
o2
o44
o16
o5
v0
n2
o5
v1
n4.62
o5
v0
n2
o2
o2
n-2
o2
o2
o2
n-0.60405866
o5
v0
n2
o5
v1
n3.25
o44
o16
o5
v0
n2
v0
o2
o2
n-1.20811732
o2
o44
o16
o5
v0
n2
o5
v1
n3.25
v0
o16
o2
o2
o2
n-0.22917851
o5
v0
n6
o5
v1
n1.09
o44
o2
n-1
v0
o2
o2
n-1.37507106
o2
o44
o2
n-1
v0
o5
v1
n1.09
o5
v0
n5
o16
o2
o2
o2
n0.19421381
o5
v0
n6
o5
v1
n0.88
o44
o2
n-1
v0
o2
o2
n1.16528286
o2
o44
o2
n-1
v0
o5
v1
n0.88
o5
v0
n5
o16
o2
o2
o2
n0.20889705
o5
v0
n3
o5
v1
n2.09
o44
o2
n-1
v0
o2
o2
n0.62669115
o2
o44
o2
n-1
v0
o5
v1
n2.09
o5
v0
n2
o16
o2
o2
o2
n-0.66847295
v0
o5
v1
n2.46
o44
o2
n-1
v0
o2
n-0.66847295
o2
o44
o2
n-1
v0
o5
v1
n2.46
o2
o2
n-29.2
o2
o2
o2
n-0.017486824
v0
o5
v1
n6.75
o44
o0
o2
n-14.6
o5
o0
v0
n-0.948
n2
o2
n-547.8
o5
o0
v1
n-1.093
n2
o0
v0
n-0.948
o2
n-0.017486824
o2
o44
o0
o2
n-14.6
o5
o0
v0
n-0.948
n2
o2
n-547.8
o5
o0
v1
n-1.093
n2
o5
v1
n6.75
o2
o2
n-6.56
o2
o2
o2
n-0.47575718
o5
v0
n4
o5
v1
n8.4
o44
o0
o2
n-3.28
o5
o0
v0
n-0.271
n2
o2
n-18.8
o5
o0
v1
n-1.426
n2
o0
v0
n-0.271
o2
o2
n-1.90302872
o2
o44
o0
o2
n-3.28
o5
o0
v0
n-0.271
n2
o2
n-18.8
o5
o0
v1
n-1.426
n2
o5
v1
n8.4
o5
v0
n3
o2
o2
n-5.092
o2
o2
o2
n-0.09220694
o5
v0
n2
o5
v1
n2.55
o44
o0
o2
n-2.546
o5
o0
v0
n-0.8577
n2
o2
n-0.92
o5
o0
v1
n-1.5
n2
o0
v0
n-0.8577
o2
o2
n-0.18441388
o2
o44
o0
o2
n-2.546
o5
o0
v0
n-0.8577
n2
o2
n-0.92
o5
o0
v1
n-1.5
n2
o5
v1
n2.55
v0
o2
o2
n-4.614
o2
o2
o2
n-0.23219062
o5
v0
n2
o5
v1
n3.05
o44
o0
o2
n-2.307
o5
o0
v0
n-0.473
n2
o2
n-3.19
o5
o0
v1
n-0.817
n2
o0
v0
n-0.473
o2
o2
n-0.46438124
o2
o44
o0
o2
n-2.307
o5
o0
v0
n-0.473
n2
o2
n-3.19
o5
o0
v1
n-0.817
n2
o5
v1
n3.05
v0
o2
o2
n-3.834
o2
o2
o2
n0.22228777
v0
o5
v1
n2.75
o44
o0
o2
n-1.917
o5
o0
v0
n-0.788
n2
o2
n-3.15
o5
o0
v1
n-1.419
n2
o0
v0
n-0.788
o2
n0.22228777
o2
o44
o0
o2
n-1.917
o5
o0
v0
n-0.788
n2
o2
n-3.15
o5
o0
v1
n-1.419
n2
o5
v1
n2.75
o2
o2
n-3.954
o2
o2
o2
n0.33874242
v0
o5
v1
n2.5
o44
o0
o2
n-1.977
o5
o0
v0
n-0.6936
n2
o2
n-3.47
o5
o0
v1
n-0.829
n2
o0
v0
n-0.6936
o2
n0.33874242
o2
o44
o0
o2
n-1.977
o5
o0
v0
n-0.6936
n2
o2
n-3.47
o5
o0
v1
n-0.829
n2
o5
v1
n2.5
o2
o2
n-1.926
o2
o2
o2
n0.017534618
v0
o5
v1
n0.76
o44
o0
o2
n-0.963
o5
o0
v0
n-1.283
n2
o2
n-2.33
o5
o0
v1
n-0.684
n2
o0
v0
n-1.283
o2
n0.017534618
o2
o44
o0
o2
n-0.963
o5
o0
v0
n-1.283
n2
o2
n-2.33
o5
o0
v1
n-0.684
n2
o5
v1
n0.76
O7 0
o54
46
o2
o2
n0.5149206119999999
v1
o5
v0
n2
o2
n0.68314932
o5
v1
n0.43
o2
n-0.92095796
o5
v1
n0.9
o16
o0
o2
o2
n-0.66847295
o5
v1
n2.46
o44
o2
n-1
v0
o2
o16
o2
o2
n-0.66847295
v0
o5
v1
n2.46
o44
o2
n-1
v0
o2
n-0.66847295
o2
o16
o44
o2
n-1
v0
o5
v1
n2.46
o2
o2
n1.2533823
o2
o44
o2
n-1
v0
o5
v1
n2.09
v0
o16
o0
o2
o2
o2
n0.62669115
o5
v0
n2
o5
v1
n2.09
o44
o2
n-1
v0
o2
o16
o2
o2
n0.20889705
o5
v0
n3
o5
v1
n2.09
o44
o2
n-1
v0
o2
o2
n0.62669115
o2
o16
o44
o2
n-1
v0
o5
v1
n2.09
o5
v0
n2
o2
o2
n5.8264143
o2
o44
o2
n-1
v0
o5
v1
n0.88
o5
v0
n4
o16
o0
o2
o2
o2
n1.16528286
o5
v0
n5
o5
v1
n0.88
o44
o2
n-1
v0
o2
o16
o2
o2
n0.19421381
o5
v0
n6
o5
v1
n0.88
o44
o2
n-1
v0
o2
o2
n1.16528286
o2
o16
o44
o2
n-1
v0
o5
v1
n0.88
o5
v0
n5
o2
o2
n-6.8753553
o2
o44
o2
n-1
v0
o5
v1
n1.09
o5
v0
n4
o16
o0
o2
o2
o2
n-1.37507106
o5
v0
n5
o5
v1
n1.09
o44
o2
n-1
v0
o2
o16
o2
o2
n-0.22917851
o5
v0
n6
o5
v1
n1.09
o44
o2
n-1
v0
o2
o2
n-1.37507106
o2
o16
o44
o2
n-1
v0
o5
v1
n1.09
o5
v0
n5
o2
n-1.20811732
o2
o44
o16
o5
v0
n2
o5
v1
n3.25
o2
n-2
o2
o2
o2
n-0.60405866
o5
v0
n2
o5
v1
n3.25
o44
o16
o5
v0
n2
o2
o2
n-2
o0
o2
o2
o2
n-1.20811732
v0
o5
v1
n3.25
o44
o16
o5
v0
n2
o2
o2
o2
n-2
v0
o2
o2
n-0.60405866
o5
v0
n2
o5
v1
n3.25
o44
o16
o5
v0
n2
v0
o2
o2
n-1.20811732
o2
o2
o2
n-2
v0
o44
o16
o5
v0
n2
o5
v1
n3.25
v0
o2
o2
n0.40008392400000004
o2
o44
o16
o5
v0
n2
o5
v1
n4.62
v0
o2
n-2
o2
o2
o2
n0.066680654
o5
v0
n3
o5
v1
n4.62
o44
o16
o5
v0
n2
o2
o2
n-2
o0
o2
o2
o2
n0.20004196200000002
o5
v0
n2
o5
v1
n4.62
o44
o16
o5
v0
n2
o2
o2
o2
n-2
v0
o2
o2
n0.066680654
o5
v0
n3
o5
v1
n4.62
o44
o16
o5
v0
n2
v0
o2
o2
n0.20004196200000002
o2
o2
o2
n-2
v0
o44
o16
o5
v0
n2
o5
v1
n4.62
o5
v0
n2
o2
n-1.926
o2
o2
o2
n0.017534618
v0
o5
v1
n0.76
o44
o0
o2
n-0.963
o5
o0
v0
n-1.283
n2
o2
n-2.33
o5
o0
v1
n-0.684
n2
o2
o2
n-1.926
o0
o2
o2
n0.017534618
o5
v1
n0.76
o44
o0
o2
n-0.963
o5
o0
v0
n-1.283
n2
o2
n-2.33
o5
o0
v1
n-0.684
n2
o2
o2
o2
n-1.926
o0
v0
n-1.283
o2
o2
n0.017534618
v0
o5
v1
n0.76
o44
o0
o2
n-0.963
o5
o0
v0
n-1.283
n2
o2
n-2.33
o5
o0
v1
n-0.684
n2
o0
v0
n-1.283
o2
n0.017534618
o2
o2
o2
n-1.926
o0
v0
n-1.283
o44
o0
o2
n-0.963
o5
o0
v0
n-1.283
n2
o2
n-2.33
o5
o0
v1
n-0.684
n2
o5
v1
n0.76
o2
n-3.954
o2
o2
o2
n0.33874242
v0
o5
v1
n2.5
o44
o0
o2
n-1.977
o5
o0
v0
n-0.6936
n2
o2
n-3.47
o5
o0
v1
n-0.829
n2
o2
o2
n-3.954
o0
o2
o2
n0.33874242
o5
v1
n2.5
o44
o0
o2
n-1.977
o5
o0
v0
n-0.6936
n2
o2
n-3.47
o5
o0
v1
n-0.829
n2
o2
o2
o2
n-3.954
o0
v0
n-0.6936
o2
o2
n0.33874242
v0
o5
v1
n2.5
o44
o0
o2
n-1.977
o5
o0
v0
n-0.6936
n2
o2
n-3.47
o5
o0
v1
n-0.829
n2
o0
v0
n-0.6936
o2
n0.33874242
o2
o2
o2
n-3.954
o0
v0
n-0.6936
o44
o0
o2
n-1.977
o5
o0
v0
n-0.6936
n2
o2
n-3.47
o5
o0
v1
n-0.829
n2
o5
v1
n2.5
o2
n-3.834
o2
o2
o2
n0.22228777
v0
o5
v1
n2.75
o44
o0
o2
n-1.917
o5
o0
v0
n-0.788
n2
o2
n-3.15
o5
o0
v1
n-1.419
n2
o2
o2
n-3.834
o0
o2
o2
n0.22228777
o5
v1
n2.75
o44
o0
o2
n-1.917
o5
o0
v0
n-0.788
n2
o2
n-3.15
o5
o0
v1
n-1.419
n2
o2
o2
o2
n-3.834
o0
v0
n-0.788
o2
o2
n0.22228777
v0
o5
v1
n2.75
o44
o0
o2
n-1.917
o5
o0
v0
n-0.788
n2
o2
n-3.15
o5
o0
v1
n-1.419
n2
o0
v0
n-0.788
o2
n0.22228777
o2
o2
o2
n-3.834
o0
v0
n-0.788
o44
o0
o2
n-1.917
o5
o0
v0
n-0.788
n2
o2
n-3.15
o5
o0
v1
n-1.419
n2
o5
v1
n2.75
o2
n-0.46438124
o2
o44
o0
o2
n-2.307
o5
o0
v0
n-0.473
n2
o2
n-3.19
o5
o0
v1
n-0.817
n2
o5
v1
n3.05
o2
n-4.614
o2
o2
o2
n-0.23219062
o5
v0
n2
o5
v1
n3.05
o44
o0
o2
n-2.307
o5
o0
v0
n-0.473
n2
o2
n-3.19
o5
o0
v1
n-0.817
n2
o2
o2
n-4.614
o0
o2
o2
o2
n-0.46438124
v0
o5
v1
n3.05
o44
o0
o2
n-2.307
o5
o0
v0
n-0.473
n2
o2
n-3.19
o5
o0
v1
n-0.817
n2
o2
o2
o2
n-4.614
o0
v0
n-0.473
o2
o2
n-0.23219062
o5
v0
n2
o5
v1
n3.05
o44
o0
o2
n-2.307
o5
o0
v0
n-0.473
n2
o2
n-3.19
o5
o0
v1
n-0.817
n2
o0
v0
n-0.473
o2
o2
n-0.46438124
o2
o2
o2
n-4.614
o0
v0
n-0.473
o44
o0
o2
n-2.307
o5
o0
v0
n-0.473
n2
o2
n-3.19
o5
o0
v1
n-0.817
n2
o5
v1
n3.05
v0
o2
n-0.18441388
o2
o44
o0
o2
n-2.546
o5
o0
v0
n-0.8577
n2
o2
n-0.92
o5
o0
v1
n-1.5
n2
o5
v1
n2.55
o2
n-5.092
o2
o2
o2
n-0.09220694
o5
v0
n2
o5
v1
n2.55
o44
o0
o2
n-2.546
o5
o0
v0
n-0.8577
n2
o2
n-0.92
o5
o0
v1
n-1.5
n2
o2
o2
n-5.092
o0
o2
o2
o2
n-0.18441388
v0
o5
v1
n2.55
o44
o0
o2
n-2.546
o5
o0
v0
n-0.8577
n2
o2
n-0.92
o5
o0
v1
n-1.5
n2
o2
o2
o2
n-5.092
o0
v0
n-0.8577
o2
o2
n-0.09220694
o5
v0
n2
o5
v1
n2.55
o44
o0
o2
n-2.546
o5
o0
v0
n-0.8577
n2
o2
n-0.92
o5
o0
v1
n-1.5
n2
o0
v0
n-0.8577
o2
o2
n-0.18441388
o2
o2
o2
n-5.092
o0
v0
n-0.8577
o44
o0
o2
n-2.546
o5
o0
v0
n-0.8577
n2
o2
n-0.92
o5
o0
v1
n-1.5
n2
o5
v1
n2.55
v0
o2
o2
n-5.70908616
o2
o44
o0
o2
n-3.28
o5
o0
v0
n-0.271
n2
o2
n-18.8
o5
o0
v1
n-1.426
n2
o5
v1
n8.4
o5
v0
n2
o2
n-6.56
o2
o2
o2
n-0.47575718
o5
v0
n4
o5
v1
n8.4
o44
o0
o2
n-3.28
o5
o0
v0
n-0.271
n2
o2
n-18.8
o5
o0
v1
n-1.426
n2
o2
o2
n-6.56
o0
o2
o2
o2
n-1.90302872
o5
v0
n3
o5
v1
n8.4
o44
o0
o2
n-3.28
o5
o0
v0
n-0.271
n2
o2
n-18.8
o5
o0
v1
n-1.426
n2
o2
o2
o2
n-6.56
o0
v0
n-0.271
o2
o2
n-0.47575718
o5
v0
n4
o5
v1
n8.4
o44
o0
o2
n-3.28
o5
o0
v0
n-0.271
n2
o2
n-18.8
o5
o0
v1
n-1.426
n2
o0
v0
n-0.271
o2
o2
n-1.90302872
o2
o2
o2
n-6.56
o0
v0
n-0.271
o44
o0
o2
n-3.28
o5
o0
v0
n-0.271
n2
o2
n-18.8
o5
o0
v1
n-1.426
n2
o5
v1
n8.4
o5
v0
n3
o2
n-29.2
o2
o2
o2
n-0.017486824
v0
o5
v1
n6.75
o44
o0
o2
n-14.6
o5
o0
v0
n-0.948
n2
o2
n-547.8
o5
o0
v1
n-1.093
n2
o2
o2
n-29.2
o0
o2
o2
n-0.017486824
o5
v1
n6.75
o44
o0
o2
n-14.6
o5
o0
v0
n-0.948
n2
o2
n-547.8
o5
o0
v1
n-1.093
n2
o2
o2
o2
n-29.2
o0
v0
n-0.948
o2
o2
n-0.017486824
v0
o5
v1
n6.75
o44
o0
o2
n-14.6
o5
o0
v0
n-0.948
n2
o2
n-547.8
o5
o0
v1
n-1.093
n2
o0
v0
n-0.948
o2
n-0.017486824
o2
o2
o2
n-29.2
o0
v0
n-0.948
o44
o0
o2
n-14.6
o5
o0
v0
n-0.948
n2
o2
n-547.8
o5
o0
v1
n-1.093
n2
o5
v1
n6.75
O8 0
o54
25
o2
o2
n-0.414431082
o5
v0
n2
o5
v1
n-0.09999999999999998
o2
o2
n0.1468771038
o5
v0
n2
o5
v1
n-0.5700000000000001
o2
o2
n-1.96132192
v0
o5
v1
n-0.19999999999999996
o2
o2
n0.571351143
v0
o5
v1
n-0.6699999999999999
o2
n0.042910051
o5
v0
n4
o2
o2
n4.62
o2
o44
o16
o5
v0
n2
o2
n0.066680654
o5
v0
n3
o5
v1
n3.62
o2
o2
n3.25
o2
o44
o16
o5
v0
n2
o2
n-0.60405866
o5
v0
n2
o5
v1
n2.25
o2
o2
n1.09
o2
o44
o2
n-1
v0
o2
n-0.22917851
o5
v0
n6
o5
v1
n0.09000000000000008
o2
o2
n0.88
o2
o44
o2
n-1
v0
o2
n0.19421381
o5
v0
n6
o5
v1
n-0.12
o2
o2
n2.09
o2
o44
o2
n-1
v0
o2
n0.20889705
o5
v0
n3
o5
v1
n1.0899999999999999
o2
o2
n2.46
o2
o44
o2
n-1
v0
o2
n-0.66847295
v0
o5
v1
n1.46
o2
o2
n-1095.6
o2
o2
o2
n-0.017486824
v0
o5
v1
n6.75
o44
o0
o2
n-14.6
o5
o0
v0
n-0.948
n2
o2
n-547.8
o5
o0
v1
n-1.093
n2
o0
v1
n-1.093
o2
o2
n6.75
o2
o44
o0
o2
n-14.6
o5
o0
v0
n-0.948
n2
o2
n-547.8
o5
o0
v1
n-1.093
n2
o2
n-0.017486824
v0
o5
v1
n5.75
o2
o2
n-37.6
o2
o2
o2
n-0.47575718
o5
v0
n4
o5
v1
n8.4
o44
o0
o2
n-3.28
o5
o0
v0
n-0.271
n2
o2
n-18.8
o5
o0
v1
n-1.426
n2
o0
v1
n-1.426
o2
o2
n8.4
o2
o44
o0
o2
n-3.28
o5
o0
v0
n-0.271
n2
o2
n-18.8
o5
o0
v1
n-1.426
n2
o2
n-0.47575718
o5
v0
n4
o5
v1
n7.4
o2
o2
n-1.84
o2
o2
o2
n-0.09220694
o5
v0
n2
o5
v1
n2.55
o44
o0
o2
n-2.546
o5
o0
v0
n-0.8577
n2
o2
n-0.92
o5
o0
v1
n-1.5
n2
o0
v1
n-1.5
o2
o2
n2.55
o2
o44
o0
o2
n-2.546
o5
o0
v0
n-0.8577
n2
o2
n-0.92
o5
o0
v1
n-1.5
n2
o2
n-0.09220694
o5
v0
n2
o5
v1
n1.5499999999999998
o2
o2
n-6.38
o2
o2
o2
n-0.23219062
o5
v0
n2
o5
v1
n3.05
o44
o0
o2
n-2.307
o5
o0
v0
n-0.473
n2
o2
n-3.19
o5
o0
v1
n-0.817
n2
o0
v1
n-0.817
o2
o2
n3.05
o2
o44
o0
o2
n-2.307
o5
o0
v0
n-0.473
n2
o2
n-3.19
o5
o0
v1
n-0.817
n2
o2
n-0.23219062
o5
v0
n2
o5
v1
n2.05
o2
o2
n-6.3
o2
o2
o2
n0.22228777
v0
o5
v1
n2.75
o44
o0
o2
n-1.917
o5
o0
v0
n-0.788
n2
o2
n-3.15
o5
o0
v1
n-1.419
n2
o0
v1
n-1.419
o2
o2
n2.75
o2
o44
o0
o2
n-1.917
o5
o0
v0
n-0.788
n2
o2
n-3.15
o5
o0
v1
n-1.419
n2
o2
n0.22228777
v0
o5
v1
n1.75
o2
o2
n-6.94
o2
o2
o2
n0.33874242
v0
o5
v1
n2.5
o44
o0
o2
n-1.977
o5
o0
v0
n-0.6936
n2
o2
n-3.47
o5
o0
v1
n-0.829
n2
o0
v1
n-0.829
o2
o2
n2.5
o2
o44
o0
o2
n-1.977
o5
o0
v0
n-0.6936
n2
o2
n-3.47
o5
o0
v1
n-0.829
n2
o2
n0.33874242
v0
o5
v1
n1.5
o2
o2
n-4.66
o2
o2
o2
n0.017534618
v0
o5
v1
n0.76
o44
o0
o2
n-0.963
o5
o0
v0
n-1.283
n2
o2
n-2.33
o5
o0
v1
n-0.684
n2
o0
v1
n-0.684
o2
o2
n0.76
o2
o44
o0
o2
n-0.963
o5
o0
v0
n-1.283
n2
o2
n-2.33
o5
o0
v1
n-0.684
n2
o2
n0.017534618
v0
o5
v1
n-0.24
O9 0
o54
38
o2
o2
n-0.38280526580999996
v0
o5
v1
n-1.67
o2
o2
n0.3922643839999999
v0
o5
v1
n-1.2
o2
o2
n-0.08371994916600001
o5
v0
n2
o5
v1
n-1.57
o2
o2
n0.04144310819999999
o5
v0
n2
o5
v1
n-1.1
o2
o2
n3.5915999999999997
o2
o44
o2
n-1
v0
o2
n-0.66847295
v0
o5
v1
n0.45999999999999996
o2
o2
n2.2780999999999993
o2
o44
o2
n-1
v0
o2
n0.20889705
o5
v0
n3
o5
v1
n0.08999999999999986
o2
o2
n-0.1056
o2
o44
o2
n-1
v0
o2
n0.19421381
o5
v0
n6
o5
v1
n-1.12
o2
o2
n0.09810000000000009
o2
o44
o2
n-1
v0
o2
n-0.22917851
o5
v0
n6
o5
v1
n-0.9099999999999999
o2
o2
n7.3125
o2
o44
o16
o5
v0
n2
o2
n-0.60405866
o5
v0
n2
o5
v1
n1.25
o2
o2
n16.7244
o2
o44
o16
o5
v0
n2
o2
n0.066680654
o5
v0
n3
o5
v1
n2.62
o2
n-4.66
o2
o2
o2
n0.017534618
v0
o5
v1
n0.76
o44
o0
o2
n-0.963
o5
o0
v0
n-1.283
n2
o2
n-2.33
o5
o0
v1
n-0.684
n2
o2
o2
n-4.66
o0
o2
o2
o2
n0.76
o5
v1
n-0.24
o2
n0.017534618
v0
o44
o0
o2
n-0.963
o5
o0
v0
n-1.283
n2
o2
n-2.33
o5
o0
v1
n-0.684
n2
o2
o2
o2
n-4.66
o0
v1
n-0.684
o2
o2
n0.017534618
v0
o5
v1
n0.76
o44
o0
o2
n-0.963
o5
o0
v0
n-1.283
n2
o2
n-2.33
o5
o0
v1
n-0.684
n2
o0
v1
n-0.684
o2
o2
n-0.1824
o2
o44
o0
o2
n-0.963
o5
o0
v0
n-1.283
n2
o2
n-2.33
o5
o0
v1
n-0.684
n2
o2
n0.017534618
v0
o5
v1
n-1.24
o2
o2
n0.76
o2
o2
o2
n-4.66
o0
v1
n-0.684
o44
o0
o2
n-0.963
o5
o0
v0
n-1.283
n2
o2
n-2.33
o5
o0
v1
n-0.684
n2
o2
n0.017534618
v0
o5
v1
n-0.24
o2
o2
n3.75
o2
o44
o0
o2
n-1.977
o5
o0
v0
n-0.6936
n2
o2
n-3.47
o5
o0
v1
n-0.829
n2
o2
n0.33874242
v0
o5
v1
n0.5
o2
n-6.94
o2
o2
o2
n0.33874242
v0
o5
v1
n2.5
o44
o0
o2
n-1.977
o5
o0
v0
n-0.6936
n2
o2
n-3.47
o5
o0
v1
n-0.829
n2
o2
o2
n-6.94
o0
o2
o2
o2
n2.5
o5
v1
n1.5
o2
n0.33874242
v0
o44
o0
o2
n-1.977
o5
o0
v0
n-0.6936
n2
o2
n-3.47
o5
o0
v1
n-0.829
n2
o2
o2
o2
n-6.94
o0
v1
n-0.829
o2
o2
n0.33874242
v0
o5
v1
n2.5
o44
o0
o2
n-1.977
o5
o0
v0
n-0.6936
n2
o2
n-3.47
o5
o0
v1
n-0.829
n2
o0
v1
n-0.829
o2
o2
n2.5
o2
o2
o2
n-6.94
o0
v1
n-0.829
o44
o0
o2
n-1.977
o5
o0
v0
n-0.6936
n2
o2
n-3.47
o5
o0
v1
n-0.829
n2
o2
n0.33874242
v0
o5
v1
n1.5
o2
o2
n4.8125
o2
o44
o0
o2
n-1.917
o5
o0
v0
n-0.788
n2
o2
n-3.15
o5
o0
v1
n-1.419
n2
o2
n0.22228777
v0
o5
v1
n0.75
o2
n-6.3
o2
o2
o2
n0.22228777
v0
o5
v1
n2.75
o44
o0
o2
n-1.917
o5
o0
v0
n-0.788
n2
o2
n-3.15
o5
o0
v1
n-1.419
n2
o2
o2
n-6.3
o0
o2
o2
o2
n2.75
o5
v1
n1.75
o2
n0.22228777
v0
o44
o0
o2
n-1.917
o5
o0
v0
n-0.788
n2
o2
n-3.15
o5
o0
v1
n-1.419
n2
o2
o2
o2
n-6.3
o0
v1
n-1.419
o2
o2
n0.22228777
v0
o5
v1
n2.75
o44
o0
o2
n-1.917
o5
o0
v0
n-0.788
n2
o2
n-3.15
o5
o0
v1
n-1.419
n2
o0
v1
n-1.419
o2
o2
n2.75
o2
o2
o2
n-6.3
o0
v1
n-1.419
o44
o0
o2
n-1.917
o5
o0
v0
n-0.788
n2
o2
n-3.15
o5
o0
v1
n-1.419
n2
o2
n0.22228777
v0
o5
v1
n1.75
o2
o2
n6.2524999999999995
o2
o44
o0
o2
n-2.307
o5
o0
v0
n-0.473
n2
o2
n-3.19
o5
o0
v1
n-0.817
n2
o2
n-0.23219062
o5
v0
n2
o5
v1
n1.0499999999999998
o2
n-6.38
o2
o2
o2
n-0.23219062
o5
v0
n2
o5
v1
n3.05
o44
o0
o2
n-2.307
o5
o0
v0
n-0.473
n2
o2
n-3.19
o5
o0
v1
n-0.817
n2
o2
o2
n-6.38
o0
o2
o2
o2
n3.05
o5
v1
n2.05
o2
n-0.23219062
o5
v0
n2
o44
o0
o2
n-2.307
o5
o0
v0
n-0.473
n2
o2
n-3.19
o5
o0
v1
n-0.817
n2
o2
o2
o2
n-6.38
o0
v1
n-0.817
o2
o2
n-0.23219062
o5
v0
n2
o5
v1
n3.05
o44
o0
o2
n-2.307
o5
o0
v0
n-0.473
n2
o2
n-3.19
o5
o0
v1
n-0.817
n2
o0
v1
n-0.817
o2
o2
n3.05
o2
o2
o2
n-6.38
o0
v1
n-0.817
o44
o0
o2
n-2.307
o5
o0
v0
n-0.473
n2
o2
n-3.19
o5
o0
v1
n-0.817
n2
o2
n-0.23219062
o5
v0
n2
o5
v1
n2.05
o2
o2
n3.9524999999999992
o2
o44
o0
o2
n-2.546
o5
o0
v0
n-0.8577
n2
o2
n-0.92
o5
o0
v1
n-1.5
n2
o2
n-0.09220694
o5
v0
n2
o5
v1
n0.5499999999999998
o2
n-1.84
o2
o2
o2
n-0.09220694
o5
v0
n2
o5
v1
n2.55
o44
o0
o2
n-2.546
o5
o0
v0
n-0.8577
n2
o2
n-0.92
o5
o0
v1
n-1.5
n2
o2
o2
n-1.84
o0
o2
o2
o2
n2.55
o5
v1
n1.5499999999999998
o2
n-0.09220694
o5
v0
n2
o44
o0
o2
n-2.546
o5
o0
v0
n-0.8577
n2
o2
n-0.92
o5
o0
v1
n-1.5
n2
o2
o2
o2
n-1.84
o0
v1
n-1.5
o2
o2
n-0.09220694
o5
v0
n2
o5
v1
n2.55
o44
o0
o2
n-2.546
o5
o0
v0
n-0.8577
n2
o2
n-0.92
o5
o0
v1
n-1.5
n2
o0
v1
n-1.5
o2
o2
n2.55
o2
o2
o2
n-1.84
o0
v1
n-1.5
o44
o0
o2
n-2.546
o5
o0
v0
n-0.8577
n2
o2
n-0.92
o5
o0
v1
n-1.5
n2
o2
n-0.09220694
o5
v0
n2
o5
v1
n1.5499999999999998
o2
o2
n62.160000000000004
o2
o44
o0
o2
n-3.28
o5
o0
v0
n-0.271
n2
o2
n-18.8
o5
o0
v1
n-1.426
n2
o2
n-0.47575718
o5
v0
n4
o5
v1
n6.4
o2
n-37.6
o2
o2
o2
n-0.47575718
o5
v0
n4
o5
v1
n8.4
o44
o0
o2
n-3.28
o5
o0
v0
n-0.271
n2
o2
n-18.8
o5
o0
v1
n-1.426
n2
o2
o2
n-37.6
o0
o2
o2
o2
n8.4
o5
v1
n7.4
o2
n-0.47575718
o5
v0
n4
o44
o0
o2
n-3.28
o5
o0
v0
n-0.271
n2
o2
n-18.8
o5
o0
v1
n-1.426
n2
o2
o2
o2
n-37.6
o0
v1
n-1.426
o2
o2
n-0.47575718
o5
v0
n4
o5
v1
n8.4
o44
o0
o2
n-3.28
o5
o0
v0
n-0.271
n2
o2
n-18.8
o5
o0
v1
n-1.426
n2
o0
v1
n-1.426
o2
o2
n8.4
o2
o2
o2
n-37.6
o0
v1
n-1.426
o44
o0
o2
n-3.28
o5
o0
v0
n-0.271
n2
o2
n-18.8
o5
o0
v1
n-1.426
n2
o2
n-0.47575718
o5
v0
n4
o5
v1
n7.4
o2
o2
n38.8125
o2
o44
o0
o2
n-14.6
o5
o0
v0
n-0.948
n2
o2
n-547.8
o5
o0
v1
n-1.093
n2
o2
n-0.017486824
v0
o5
v1
n4.75
o2
n-1095.6
o2
o2
o2
n-0.017486824
v0
o5
v1
n6.75
o44
o0
o2
n-14.6
o5
o0
v0
n-0.948
n2
o2
n-547.8
o5
o0
v1
n-1.093
n2
o2
o2
n-1095.6
o0
o2
o2
o2
n6.75
o5
v1
n5.75
o2
n-0.017486824
v0
o44
o0
o2
n-14.6
o5
o0
v0
n-0.948
n2
o2
n-547.8
o5
o0
v1
n-1.093
n2
o2
o2
o2
n-1095.6
o0
v1
n-1.093
o2
o2
n-0.017486824
v0
o5
v1
n6.75
o44
o0
o2
n-14.6
o5
o0
v0
n-0.948
n2
o2
n-547.8
o5
o0
v1
n-1.093
n2
o0
v1
n-1.093
o2
o2
n6.75
o2
o2
o2
n-1095.6
o0
v1
n-1.093
o44
o0
o2
n-14.6
o5
o0
v0
n-0.948
n2
o2
n-547.8
o5
o0
v1
n-1.093
n2
o2
n-0.017486824
v0
o5
v1
n5.75
O10 0
o54
25
o2
n0.171640204
o5
v0
n3
o2
n0.571351143
o5
v1
n-0.6699999999999999
o2
n-1.96132192
o5
v1
n-0.19999999999999996
o2
o2
n0.2937542076
v0
o5
v1
n-0.5700000000000001
o2
o2
n-0.828862164
v0
o5
v1
n-0.09999999999999998
o2
o2
n2.46
o0
o2
n-0.66847295
o44
o2
n-1
v0
o2
o16
o44
o2
n-1
v0
o2
n-0.66847295
v0
o5
v1
n1.46
o2
o2
n2.09
o0
o2
o2
n0.62669115
o5
v0
n2
o44
o2
n-1
v0
o2
o16
o44
o2
n-1
v0
o2
n0.20889705
o5
v0
n3
o5
v1
n1.0899999999999999
o2
o2
n0.88
o0
o2
o2
n1.16528286
o5
v0
n5
o44
o2
n-1
v0
o2
o16
o44
o2
n-1
v0
o2
n0.19421381
o5
v0
n6
o5
v1
n-0.12
o2
o2
n1.09
o0
o2
o2
n-1.37507106
o5
v0
n5
o44
o2
n-1
v0
o2
o16
o44
o2
n-1
v0
o2
n-0.22917851
o5
v0
n6
o5
v1
n0.09000000000000008
o2
o2
n3.25
o0
o2
o2
n-1.20811732
v0
o44
o16
o5
v0
n2
o2
o2
o2
n-2
v0
o44
o16
o5
v0
n2
o2
n-0.60405866
o5
v0
n2
o5
v1
n2.25
o2
o2
n4.62
o0
o2
o2
n0.20004196200000002
o5
v0
n2
o44
o16
o5
v0
n2
o2
o2
o2
n-2
v0
o44
o16
o5
v0
n2
o2
n0.066680654
o5
v0
n3
o5
v1
n3.62
o2
o2
n-4.66
o0
o2
o2
n0.017534618
o5
v1
n0.76
o44
o0
o2
n-0.963
o5
o0
v0
n-1.283
n2
o2
n-2.33
o5
o0
v1
n-0.684
n2
o2
o2
o2
n-1.926
o0
v0
n-1.283
o2
o2
n0.017534618
v0
o5
v1
n0.76
o44
o0
o2
n-0.963
o5
o0
v0
n-1.283
n2
o2
n-2.33
o5
o0
v1
n-0.684
n2
o0
v1
n-0.684
o2
o2
n0.76
o0
o2
n0.017534618
o44
o0
o2
n-0.963
o5
o0
v0
n-1.283
n2
o2
n-2.33
o5
o0
v1
n-0.684
n2
o2
o2
o2
n-1.926
o0
v0
n-1.283
o44
o0
o2
n-0.963
o5
o0
v0
n-1.283
n2
o2
n-2.33
o5
o0
v1
n-0.684
n2
o2
n0.017534618
v0
o5
v1
n-0.24
o2
o2
n-6.94
o0
o2
o2
n0.33874242
o5
v1
n2.5
o44
o0
o2
n-1.977
o5
o0
v0
n-0.6936
n2
o2
n-3.47
o5
o0
v1
n-0.829
n2
o2
o2
o2
n-3.954
o0
v0
n-0.6936
o2
o2
n0.33874242
v0
o5
v1
n2.5
o44
o0
o2
n-1.977
o5
o0
v0
n-0.6936
n2
o2
n-3.47
o5
o0
v1
n-0.829
n2
o0
v1
n-0.829
o2
o2
n2.5
o0
o2
n0.33874242
o44
o0
o2
n-1.977
o5
o0
v0
n-0.6936
n2
o2
n-3.47
o5
o0
v1
n-0.829
n2
o2
o2
o2
n-3.954
o0
v0
n-0.6936
o44
o0
o2
n-1.977
o5
o0
v0
n-0.6936
n2
o2
n-3.47
o5
o0
v1
n-0.829
n2
o2
n0.33874242
v0
o5
v1
n1.5
o2
o2
n-6.3
o0
o2
o2
n0.22228777
o5
v1
n2.75
o44
o0
o2
n-1.917
o5
o0
v0
n-0.788
n2
o2
n-3.15
o5
o0
v1
n-1.419
n2
o2
o2
o2
n-3.834
o0
v0
n-0.788
o2
o2
n0.22228777
v0
o5
v1
n2.75
o44
o0
o2
n-1.917
o5
o0
v0
n-0.788
n2
o2
n-3.15
o5
o0
v1
n-1.419
n2
o0
v1
n-1.419
o2
o2
n2.75
o0
o2
n0.22228777
o44
o0
o2
n-1.917
o5
o0
v0
n-0.788
n2
o2
n-3.15
o5
o0
v1
n-1.419
n2
o2
o2
o2
n-3.834
o0
v0
n-0.788
o44
o0
o2
n-1.917
o5
o0
v0
n-0.788
n2
o2
n-3.15
o5
o0
v1
n-1.419
n2
o2
n0.22228777
v0
o5
v1
n1.75
o2
o2
n-6.38
o0
o2
o2
o2
n-0.46438124
v0
o5
v1
n3.05
o44
o0
o2
n-2.307
o5
o0
v0
n-0.473
n2
o2
n-3.19
o5
o0
v1
n-0.817
n2
o2
o2
o2
n-4.614
o0
v0
n-0.473
o2
o2
n-0.23219062
o5
v0
n2
o5
v1
n3.05
o44
o0
o2
n-2.307
o5
o0
v0
n-0.473
n2
o2
n-3.19
o5
o0
v1
n-0.817
n2
o0
v1
n-0.817
o2
o2
n3.05
o0
o2
o2
n-0.46438124
v0
o44
o0
o2
n-2.307
o5
o0
v0
n-0.473
n2
o2
n-3.19
o5
o0
v1
n-0.817
n2
o2
o2
o2
n-4.614
o0
v0
n-0.473
o44
o0
o2
n-2.307
o5
o0
v0
n-0.473
n2
o2
n-3.19
o5
o0
v1
n-0.817
n2
o2
n-0.23219062
o5
v0
n2
o5
v1
n2.05
o2
o2
n-1.84
o0
o2
o2
o2
n-0.18441388
v0
o5
v1
n2.55
o44
o0
o2
n-2.546
o5
o0
v0
n-0.8577
n2
o2
n-0.92
o5
o0
v1
n-1.5
n2
o2
o2
o2
n-5.092
o0
v0
n-0.8577
o2
o2
n-0.09220694
o5
v0
n2
o5
v1
n2.55
o44
o0
o2
n-2.546
o5
o0
v0
n-0.8577
n2
o2
n-0.92
o5
o0
v1
n-1.5
n2
o0
v1
n-1.5
o2
o2
n2.55
o0
o2
o2
n-0.18441388
v0
o44
o0
o2
n-2.546
o5
o0
v0
n-0.8577
n2
o2
n-0.92
o5
o0
v1
n-1.5
n2
o2
o2
o2
n-5.092
o0
v0
n-0.8577
o44
o0
o2
n-2.546
o5
o0
v0
n-0.8577
n2
o2
n-0.92
o5
o0
v1
n-1.5
n2
o2
n-0.09220694
o5
v0
n2
o5
v1
n1.5499999999999998
o2
o2
n-37.6
o0
o2
o2
o2
n-1.90302872
o5
v0
n3
o5
v1
n8.4
o44
o0
o2
n-3.28
o5
o0
v0
n-0.271
n2
o2
n-18.8
o5
o0
v1
n-1.426
n2
o2
o2
o2
n-6.56
o0
v0
n-0.271
o2
o2
n-0.47575718
o5
v0
n4
o5
v1
n8.4
o44
o0
o2
n-3.28
o5
o0
v0
n-0.271
n2
o2
n-18.8
o5
o0
v1
n-1.426
n2
o0
v1
n-1.426
o2
o2
n8.4
o0
o2
o2
n-1.90302872
o5
v0
n3
o44
o0
o2
n-3.28
o5
o0
v0
n-0.271
n2
o2
n-18.8
o5
o0
v1
n-1.426
n2
o2
o2
o2
n-6.56
o0
v0
n-0.271
o44
o0
o2
n-3.28
o5
o0
v0
n-0.271
n2
o2
n-18.8
o5
o0
v1
n-1.426
n2
o2
n-0.47575718
o5
v0
n4
o5
v1
n7.4
o2
o2
n-1095.6
o0
o2
o2
n-0.017486824
o5
v1
n6.75
o44
o0
o2
n-14.6
o5
o0
v0
n-0.948
n2
o2
n-547.8
o5
o0
v1
n-1.093
n2
o2
o2
o2
n-29.2
o0
v0
n-0.948
o2
o2
n-0.017486824
v0
o5
v1
n6.75
o44
o0
o2
n-14.6
o5
o0
v0
n-0.948
n2
o2
n-547.8
o5
o0
v1
n-1.093
n2
o0
v1
n-1.093
o2
o2
n6.75
o0
o2
n-0.017486824
o44
o0
o2
n-14.6
o5
o0
v0
n-0.948
n2
o2
n-547.8
o5
o0
v1
n-1.093
n2
o2
o2
o2
n-29.2
o0
v0
n-0.948
o44
o0
o2
n-14.6
o5
o0
v0
n-0.948
n2
o2
n-547.8
o5
o0
v1
n-1.093
n2
o2
n-0.017486824
v0
o5
v1
n5.75
O11 0
o0
o54
4
o2
n1.82205
o5
o0
o16
o3
n1
v1
n1
n0.345
o2
n0.65802
o5
o0
o16
o3
n1
v1
n1
n0.74
o2
n0.21109
o5
o0
o16
o3
n1
v1
n1
n2.6
o2
n0.083973
o5
o0
o16
o3
n1
v1
n1
n7.2
n1.0
O12 0
o44
o54
6
o2
n-2.4887
o5
o0
o16
o3
n1
v1
n1
n0.3785
o2
n-5.1069
o5
o0
o16
o3
n1
v1
n1
n1.07
o2
n-12.174
o5
o0
o16
o3
n1
v1
n1
n2.7
o2
n-30.495
o5
o0
o16
o3
n1
v1
n1
n5.5
o2
n-52.192
o5
o0
o16
o3
n1
v1
n1
n10.0
o2
n-134.89
o5
o0
o16
o3
n1
v1
n1
n20.0
O13 0
n0.0
x2
0 1.00000001
1 1.0
r
b
3
3
k1
0
G0 2
0 0
1 4.29352
G1 1
0 0
G2 1
0 0
G3 1
1 0
G4 1
1 0
G5 2
0 0
1 0
G6 2
0 0
1 0
G7 2
0 0
1 0
G8 2
0 0
1 0
G9 2
0 0
1 0
G10 2
0 0
1 0
G11 1
1 0
G12 1
1 0
